projected/problems_b25_r0_d7_m100_s666/_DIMACS/b25_d7_r0_s666_053.cnf
p cnf 325 641 25
c p show 1 2 3 4 5 6 7 8 9 10 11 12 13 14 15 16 17 18 19 20 21 22 23 24 25
-26 15 0
-26 -12 0
-27 -20 0
-27 4 0
-28 -4 0
-28 20 0
-29 28 27 0
-30 29 26 0
-31 24 9 0
-32 13 9 0
-33 32 31 0
-34 33 30 0
-35 3 0
-35 18 0
-36 20 5 0
-37 36 0
-37 35 0
-38 -3 -18 0
-39 -1 -11 0
-40 39 38 0
-41 40 37 0
-42 41 34 0
-43 -15 0
-43 2 0
-44 -2 0
-44 12 0
-45 44 43 0
-46 -7 -19 0
-47 -25 0
-47 -19 0
-48 47 46 0
-49 48 45 0
-50 23 0
-50 -24 0
-51 24 0
-51 -23 0
-52 51 50 0
-53 -8 0
-53 -2 0
-54 53 0
-54 52 0
-55 8 2 0
-56 -23 24 0
-57 -24 23 0
-58 57 0
-58 56 0
-59 58 0
-59 55 0
-60 59 54 0
-61 25 18 0
-62 6 0
-62 14 0
-63 62 0
-63 61 0
-64 63 60 0
-65 64 49 0
-66 65 0
-66 42 0
-67 -18 -3 0
-68 11 -19 0
-69 68 0
-69 67 0
-70 12 0
-70 22 0
-71 -25 -22 0
-72 71 0
-72 70 0
-73 72 69 0
-74 -12 -22 0
-75 25 0
-75 22 0
-76 75 74 0
-77 18 0
-77 3 0
-78 -11 0
-78 19 0
-79 78 77 0
-80 79 76 0
-81 80 0
-81 73 0
-82 -5 23 0
-83 -9 0
-83 -5 0
-84 83 0
-84 82 0
-85 17 0
-85 21 0
-86 9 18 0
-87 86 85 0
-88 87 84 0
-89 88 0
-89 81 0
-90 -1 0
-90 7 0
-91 -10 -11 0
-92 11 10 0
-93 92 0
-93 91 0
-94 93 90 0
-95 -21 0
-95 -24 0
-96 1 0
-96 -17 0
-97 96 95 0
-98 97 94 0
-99 -20 0
-99 11 0
-100 14 0
-100 20 0
-101 100 99 0
-102 -13 0
-102 6 0
-103 -21 0
-103 -5 0
-104 103 0
-104 102 0
-105 104 101 0
-106 105 0
-106 98 0
-107 106 89 0
-108 107 66 0
-109 -10 2 0
-110 1 -8 0
-111 110 109 0
-112 -18 0
-112 -12 0
-113 -13 0
-113 17 0
-114 -17 0
-114 13 0
-115 114 113 0
-116 115 0
-116 112 0
-117 116 0
-117 111 0
-118 18 9 0
-119 -9 -18 0
-120 119 0
-120 118 0
-121 -22 0
-121 -12 0
-122 121 0
-122 120 0
-123 22 12 0
-124 -18 0
-124 -9 0
-125 9 0
-125 18 0
-126 125 124 0
-127 126 0
-127 123 0
-128 127 122 0
-129 7 0
-129 -2 0
-130 -13 19 0
-131 130 0
-131 129 0
-132 131 0
-132 128 0
-133 132 0
-133 117 0
-134 5 0
-134 -1 0
-135 -5 2 0
-136 135 0
-136 134 0
-137 -21 -6 0
-138 -5 0
-138 7 0
-139 138 137 0
-140 139 0
-140 136 0
-141 -12 0
-142 12 0
-143 142 0
-143 141 0
-144 4 0
-144 -21 0
-145 21 0
-145 -4 0
-146 145 144 0
-147 146 0
-147 143 0
-148 15 0
-148 13 0
-149 -14 21 0
-150 149 148 0
-151 150 147 0
-152 151 0
-152 140 0
-153 152 133 0
-154 -23 0
-154 14 0
-155 1 0
-155 -5 0
-156 155 0
-156 154 0
-157 -17 0
-157 -8 0
-158 15 -9 0
-159 158 0
-159 157 0
-160 159 0
-160 156 0
-161 -18 0
-161 -1 0
-162 23 -2 0
-163 162 0
-163 161 0
-164 -23 0
-164 2 0
-165 18 1 0
-166 165 0
-166 164 0
-167 166 163 0
-168 14 0
-168 19 0
-169 -14 0
-169 -16 0
-170 169 0
-170 168 0
-171 170 0
-171 167 0
-172 171 160 0
-173 164 165 0
-174 161 162 0
-175 174 0
-175 173 0
-176 -14 -19 0
-177 14 16 0
-178 177 176 0
-179 178 175 0
-180 23 -14 0
-181 -1 5 0
-182 181 180 0
-183 17 8 0
-184 -15 0
-184 9 0
-185 184 183 0
-186 185 182 0
-187 186 179 0
-188 187 0
-188 172 0
-189 2 0
-189 -10 0
-190 9 0
-191 190 0
-191 189 0
-192 -11 9 0
-193 9 -6 0
-194 193 192 0
-195 194 191 0
-196 -12 8 0
-197 8 24 0
-198 197 0
-198 196 0
-199 19 0
-199 1 0
-200 25 0
-200 3 0
-201 200 0
-201 199 0
-202 201 198 0
-203 202 195 0
-204 203 0
-204 188 0
-205 204 153 0
-206 205 108 0
-207 10 0
-207 -2 0
-208 -1 0
-208 8 0
-209 208 0
-209 207 0
-210 18 12 0
-211 13 -17 0
-212 17 -13 0
-213 212 0
-213 211 0
-214 213 210 0
-215 214 209 0
-216 123 126 0
-217 120 121 0
-218 217 0
-218 216 0
-219 -7 2 0
-220 13 0
-220 -19 0
-221 220 219 0
-222 221 218 0
-223 222 215 0
-224 -5 1 0
-225 5 0
-225 -2 0
-226 225 224 0
-227 21 0
-227 6 0
-228 5 -7 0
-229 228 0
-229 227 0
-230 229 226 0
-231 12 0
-232 -12 0
-233 232 231 0
-234 -4 21 0
-235 -21 4 0
-236 235 0
-236 234 0
-237 236 233 0
-238 -15 -13 0
-239 14 0
-239 -21 0
-240 239 0
-240 238 0
-241 240 0
-241 237 0
-242 241 230 0
-243 242 0
-243 223 0
-244 179 0
-244 186 0
-245 160 0
-245 171 0
-246 245 244 0
-247 -2 10 0
-248 -9 0
-249 248 247 0
-250 11 0
-250 -9 0
-251 -9 0
-251 6 0
-252 251 0
-252 250 0
-253 252 0
-253 249 0
-254 12 0
-254 -8 0
-255 -8 0
-255 -24 0
-256 255 254 0
-257 -19 -1 0
-258 -25 -3 0
-259 258 257 0
-260 259 0
-260 256 0
-261 260 0
-261 253 0
-262 261 246 0
-263 262 0
-263 243 0
-264 -15 12 0
-265 20 -4 0
-266 4 -20 0
-267 266 0
-267 265 0
-268 267 0
-268 264 0
-269 -24 0
-269 -9 0
-270 -13 0
-270 -9 0
-271 270 0
-271 269 0
-272 271 0
-272 268 0
-273 -20 0
-273 -5 0
-274 273 38 0
-275 1 0
-275 11 0
-276 275 0
-276 35 0
-277 276 0
-277 274 0
-278 277 0
-278 272 0
-279 15 -2 0
-280 2 -12 0
-281 280 0
-281 279 0
-282 7 0
-282 19 0
-283 25 19 0
-284 283 0
-284 282 0
-285 284 0
-285 281 0
-286 55 58 0
-287 52 53 0
-288 287 0
-288 286 0
-289 -25 0
-289 -18 0
-290 -6 -14 0
-291 290 289 0
-292 291 0
-292 288 0
-293 292 0
-293 285 0
-294 293 278 0
-295 76 0
-295 79 0
-296 69 0
-296 72 0
-297 296 295 0
-298 5 0
-298 -23 0
-299 9 5 0
-300 299 298 0
-301 -17 -21 0
-302 -9 0
-302 -18 0
-303 302 0
-303 301 0
-304 303 0
-304 300 0
-305 304 297 0
-306 1 -7 0
-307 10 0
-307 11 0
-308 -11 0
-308 -10 0
-309 308 307 0
-310 309 0
-310 306 0
-311 21 24 0
-312 -1 17 0
-313 312 0
-313 311 0
-314 313 0
-314 310 0
-315 20 -11 0
-316 -14 -20 0
-317 316 0
-317 315 0
-318 13 -6 0
-319 21 5 0
-320 319 318 0
-321 320 0
-321 317 0
-322 321 314 0
-323 322 0
-323 305 0
-324 323 0
-324 294 0
-325 324 263 0
325 0
206 0
-109 -207 0
-207 -109 0
-208 -110 0
-209 -111 0
-111 -209 0
-210 -112 0
-112 -210 0
-213 -115 0
-115 -213 0
-116 -214 0
-117 -215 0
-215 -117 0
-121 -123 0
-120 -126 0
-126 -120 0
-218 -128 0
-128 -218 0
-219 -129 0
-130 -220 0
-220 -130 0
-221 -131 0
-131 -221 0
-132 -222 0
-222 -132 0
-223 -133 0
-133 -223 0
-224 -134 0
-225 -135 0
-226 -136 0
-137 -227 0
-138 -228 0
-139 -229 0
-229 -139 0
-230 -140 0
-140 -230 0
-143 -233 0
-233 -143 0
-236 -146 0
-237 -147 0
-148 -238 0
-238 -148 0
-149 -239 0
-239 -149 0
-240 -150 0
-241 -151 0
-151 -241 0
-152 -242 0
-153 -243 0
-243 -153 0
-162 -164 0
-161 -165 0
-165 -161 0
-175 -167 0
-167 -175 0
-176 -168 0
-168 -176 0
-177 -169 0
-169 -177 0
-170 -178 0
-171 -179 0
-179 -171 0
-154 -180 0
-155 -181 0
-156 -182 0
-182 -156 0
-183 -157 0
-157 -183 0
-184 -158 0
-158 -184 0
-159 -185 0
-185 -159 0
-186 -160 0
-160 -186 0
-188 -246 0
-246 -188 0
-247 -189 0
-189 -247 0
-248 -190 0
-190 -248 0
-191 -249 0
-249 -191 0
-192 -250 0
-250 -192 0
-193 -251 0
-251 -193 0
-252 -194 0
-253 -195 0
-195 -253 0
-254 -196 0
-255 -197 0
-256 -198 0
-257 -199 0
-258 -200 0
-259 -201 0
-260 -202 0
-202 -260 0
-203 -261 0
-261 -203 0
-262 -204 0
-263 -205 0
-264 -26 0
-267 -29 0
-268 -30 0
-30 -268 0
-31 -269 0
-269 -31 0
-270 -32 0
-271 -33 0
-33 -271 0
-34 -272 0
-272 -34 0
-35 -38 0
-38 -35 0
-273 -36 0
-274 -37 0
-275 -39 0
-39 -275 0
-40 -276 0
-276 -40 0
-277 -41 0
-278 -42 0
-279 -43 0
-280 -44 0
-281 -45 0
-45 -281 0
-282 -46 0
-46 -282 0
-47 -283 0
-48 -284 0
-49 -285 0
-285 -49 0
-55 -53 0
-53 -55 0
-58 -52 0
-288 -60 0
-60 -288 0
-61 -289 0
-289 -61 0
-290 -62 0
-291 -63 0
-63 -291 0
-64 -292 0
-292 -64 0
-293 -65 0
-294 -66 0
-70 -74 0
-71 -75 0
-72 -76 0
-76 -72 0
-77 -67 0
-67 -77 0
-78 -68 0
-68 -78 0
-69 -79 0
-81 -297 0
-298 -82 0
-83 -299 0
-299 -83 0
-300 -84 0
-301 -85 0
-85 -301 0
-86 -302 0
-87 -303 0
-303 -87 0
-304 -88 0
-88 -304 0
-89 -305 0
-305 -89 0
-90 -306 0
-306 -90 0
-93 -309 0
-309 -93 0
-310 -94 0
-94 -310 0
-95 -311 0
-312 -96 0
-96 -312 0
-97 -313 0
-98 -314 0
-314 -98 0
-315 -99 0
-316 -100 0
-317 -101 0
-101 -317 0
-102 -318 0
-103 -319 0
-104 -320 0
-105 -321 0
-321 -105 0
-322 -106 0
-323 -107 0
-324 -108 0
-108 -324 0
