projected/problems_b25_r0_d7_m100_s666/b25_d7_r0_s666_053.smt2
(set-logic QF_UF)
(declare-fun A0 () Bool)
(declare-fun A1 () Bool)
(declare-fun A2 () Bool)
(declare-fun A3 () Bool)
(declare-fun A4 () Bool)
(declare-fun A5 () Bool)
(declare-fun A6 () Bool)
(declare-fun A7 () Bool)
(declare-fun A8 () Bool)
(declare-fun A9 () Bool)
(declare-fun A10 () Bool)
(declare-fun A11 () Bool)
(declare-fun A12 () Bool)
(declare-fun A13 () Bool)
(declare-fun A14 () Bool)
(declare-fun A15 () Bool)
(declare-fun A16 () Bool)
(declare-fun A17 () Bool)
(declare-fun A18 () Bool)
(declare-fun A19 () Bool)
(declare-fun A20 () Bool)
(declare-fun A21 () Bool)
(declare-fun A22 () Bool)
(declare-fun A23 () Bool)
(declare-fun A24 () Bool)
(assert (let ((.def_0 (not A9))) (let ((.def_1 (or .def_0 A1))) (let ((.def_2 (not .def_1))) (let ((.def_3 (not A0))) (let ((.def_4 (and .def_3 A7))) (let ((.def_5 (and .def_4 .def_2))) (let ((.def_6 (not .def_5))) (let ((.def_7 (or A17 A11))) (let ((.def_8 (not .def_7))) (let ((.def_9 (not A12))) (let ((.def_10 (not A16))) (let ((.def_11 (= .def_10 .def_9))) (let ((.def_12 (not .def_11))) (let ((.def_13 (and .def_12 .def_8))) (let ((.def_14 (and .def_13 .def_6))) (let ((.def_15 (not .def_14))) (let ((.def_16 (not A11))) (let ((.def_17 (not A21))) (let ((.def_18 (and .def_17 .def_16))) (let ((.def_19 (not A17))) (let ((.def_20 (= A8 .def_19))) (let ((.def_21 (not .def_20))) (let ((.def_22 (= .def_21 .def_18))) (let ((.def_23 (not .def_22))) (let ((.def_24 (not A6))) (let ((.def_25 (or .def_24 A1))) (let ((.def_26 (or .def_9 A18))) (let ((.def_27 (not .def_26))) (let ((.def_28 (or .def_27 .def_25))) (let ((.def_29 (not .def_28))) (let ((.def_30 (and .def_29 .def_23))) (let ((.def_31 (not .def_30))) (let ((.def_32 (or .def_31 .def_15))) (let ((.def_33 (not .def_32))) (let ((.def_34 (not A4))) (let ((.def_35 (or .def_34 A0))) (let ((.def_36 (not A1))) (let ((.def_37 (and A4 .def_36))) (let ((.def_38 (or .def_37 .def_35))) (let ((.def_39 (not A5))) (let ((.def_40 (not A20))) (let ((.def_41 (or .def_40 .def_39))) (let ((.def_42 (and .def_34 A6))) (let ((.def_43 (or .def_42 .def_41))) (let ((.def_44 (not .def_43))) (let ((.def_45 (or .def_44 .def_38))) (let ((.def_46 (not .def_45))) (let ((.def_47 (= .def_16 A11))) (let ((.def_48 (not .def_47))) (let ((.def_49 (= A20 A3))) (let ((.def_50 (or .def_49 .def_48))) (let ((.def_51 (and A14 A12))) (let ((.def_52 (not .def_51))) (let ((.def_53 (not A13))) (let ((.def_54 (or .def_53 A20))) (let ((.def_55 (not .def_54))) (let ((.def_56 (and .def_55 .def_52))) (let ((.def_57 (and .def_56 .def_50))) (let ((.def_58 (not .def_57))) (let ((.def_59 (and .def_58 .def_46))) (let ((.def_60 (or .def_59 .def_33))) (let ((.def_61 (not .def_60))) (let ((.def_62 (or A22 .def_36))) (let ((.def_63 (and .def_19 .def_3))) (let ((.def_64 (not .def_63))) (let ((.def_65 (= .def_64 .def_62))) (let ((.def_66 (not .def_65))) (let ((.def_67 (not A18))) (let ((.def_68 (or .def_53 .def_67))) (let ((.def_69 (not .def_68))) (let ((.def_70 (or A13 A15))) (let ((.def_71 (not .def_70))) (let ((.def_72 (and .def_71 .def_69))) (let ((.def_73 (and .def_72 .def_66))) (let ((.def_74 (not .def_73))) (let ((.def_75 (not A22))) (let ((.def_76 (and .def_75 A13))) (let ((.def_77 (and A0 .def_34))) (let ((.def_78 (and .def_77 .def_76))) (let ((.def_79 (not .def_78))) (let ((.def_80 (or A16 A7))) (let ((.def_81 (not .def_80))) (let ((.def_82 (not A14))) (let ((.def_83 (and .def_82 A8))) (let ((.def_84 (not .def_83))) (let ((.def_85 (and .def_84 .def_81))) (let ((.def_86 (not .def_85))) (let ((.def_87 (or .def_86 .def_79))) (let ((.def_88 (not .def_87))) (let ((.def_89 (= .def_88 .def_74))) (let ((.def_90 (not .def_89))) (let ((.def_91 (or .def_36 A9))) (let ((.def_92 (not .def_91))) (let ((.def_93 (not A8))) (let ((.def_94 (and .def_93 .def_93))) (let ((.def_95 (not .def_94))) (let ((.def_96 (and .def_95 .def_92))) (let ((.def_97 (not .def_96))) (let ((.def_98 (not A10))) (let ((.def_99 (or .def_98 A8))) (let ((.def_100 (not .def_99))) (let ((.def_101 (or A8 .def_39))) (let ((.def_102 (not .def_101))) (let ((.def_103 (and .def_102 .def_100))) (let ((.def_104 (and .def_103 .def_97))) (let ((.def_105 (not .def_104))) (let ((.def_106 (not A7))) (let ((.def_107 (and A11 .def_106))) (let ((.def_108 (not A23))) (let ((.def_109 (and .def_106 .def_108))) (let ((.def_110 (or .def_109 .def_107))) (let ((.def_111 (or .def_67 .def_3))) (let ((.def_112 (not A2))) (let ((.def_113 (not A24))) (let ((.def_114 (or .def_113 .def_112))) (let ((.def_115 (or .def_114 .def_111))) (let ((.def_116 (and .def_115 .def_110))) (let ((.def_117 (not .def_116))) (let ((.def_118 (or .def_117 .def_105))) (let ((.def_119 (not .def_118))) (let ((.def_120 (or .def_119 .def_90))) (let ((.def_121 (and .def_120 .def_61))) (let ((.def_122 (or .def_82 A11))) (let ((.def_123 (not A19))) (let ((.def_124 (not A3))) (let ((.def_125 (= .def_124 .def_123))) (let ((.def_126 (and .def_125 .def_122))) (let ((.def_127 (not .def_126))) (let ((.def_128 (or A23 A8))) (let ((.def_129 (not .def_128))) (let ((.def_130 (and .def_9 .def_93))) (let ((.def_131 (and .def_130 .def_129))) (let ((.def_132 (not .def_131))) (let ((.def_133 (or .def_132 .def_127))) (let ((.def_134 (not .def_133))) (let ((.def_135 (and A2 A17))) (let ((.def_136 (not .def_135))) (let ((.def_137 (and .def_123 .def_34))) (let ((.def_138 (or .def_137 .def_136))) (let ((.def_139 (and A0 A10))) (let ((.def_140 (not .def_139))) (let ((.def_141 (or .def_140 .def_136))) (let ((.def_142 (not .def_141))) (let ((.def_143 (and .def_142 .def_138))) (let ((.def_144 (and .def_143 .def_134))) (let ((.def_145 (or A14 .def_36))) (let ((.def_146 (or A1 .def_16))) (let ((.def_147 (and .def_146 .def_145))) (let ((.def_148 (not .def_147))) (let ((.def_149 (and A6 A18))) (let ((.def_150 (not .def_149))) (let ((.def_151 (and .def_113 .def_67))) (let ((.def_152 (or .def_151 .def_150))) (let ((.def_153 (or .def_152 .def_148))) (let ((.def_154 (not .def_153))) (let ((.def_155 (or A7 A1))) (let ((.def_156 (not .def_155))) (let ((.def_157 (= A23 A22))) (let ((.def_158 (= .def_157 .def_156))) (let ((.def_159 (not .def_158))) (let ((.def_160 (or A24 A17))) (let ((.def_161 (not .def_160))) (let ((.def_162 (or .def_39 .def_53))) (let ((.def_163 (or .def_162 .def_161))) (let ((.def_164 (not .def_163))) (let ((.def_165 (or .def_164 .def_159))) (let ((.def_166 (not .def_165))) (let ((.def_167 (and .def_166 .def_154))) (let ((.def_168 (or .def_167 .def_144))) (let ((.def_169 (and A11 A21))) (let ((.def_170 (or .def_113 .def_17))) (let ((.def_171 (and .def_170 .def_169))) (let ((.def_172 (not .def_171))) (let ((.def_173 (and A17 A2))) (let ((.def_174 (not .def_173))) (let ((.def_175 (and .def_98 A18))) (let ((.def_176 (not .def_175))) (let ((.def_177 (and .def_176 .def_174))) (let ((.def_178 (= .def_177 .def_172))) (let ((.def_179 (and A4 .def_75))) (let ((.def_180 (and .def_93 .def_34))) (let ((.def_181 (not .def_180))) (let ((.def_182 (or .def_181 .def_179))) (let ((.def_183 (or .def_10 .def_40))) (let ((.def_184 (not .def_183))) (let ((.def_185 (or A8 A17))) (let ((.def_186 (or .def_185 .def_184))) (let ((.def_187 (not .def_186))) (let ((.def_188 (and .def_187 .def_182))) (let ((.def_189 (not .def_188))) (let ((.def_190 (and .def_189 .def_178))) (let ((.def_191 (not .def_190))) (let ((.def_192 (and .def_3 A6))) (let ((.def_193 (not .def_192))) (let ((.def_194 (= .def_98 A9))) (let ((.def_195 (not .def_194))) (let ((.def_196 (and .def_195 .def_193))) (let ((.def_197 (not .def_196))) (let ((.def_198 (and .def_40 .def_108))) (let ((.def_199 (or .def_3 A16))) (let ((.def_200 (not .def_199))) (let ((.def_201 (or .def_200 .def_198))) (let ((.def_202 (or .def_201 .def_197))) (let ((.def_203 (not .def_202))) (let ((.def_204 (or A19 .def_98))) (let ((.def_205 (or .def_53 .def_123))) (let ((.def_206 (and .def_205 .def_204))) (let ((.def_207 (not .def_206))) (let ((.def_208 (and .def_9 A5))) (let ((.def_209 (and .def_40 .def_34))) (let ((.def_210 (and .def_209 .def_208))) (let ((.def_211 (or .def_210 .def_207))) (let ((.def_212 (not .def_211))) (let ((.def_213 (or .def_212 .def_203))) (let ((.def_214 (and .def_213 .def_191))) (let ((.def_215 (and .def_214 .def_168))) (let ((.def_216 (not .def_215))) (let ((.def_217 (= .def_216 .def_121))) .def_217)))))))))))))))))))))))))))))))))))))))))))))))))))))))))))))))))))))))))))))))))))))))))))))))))))))))))))))))))))))))))))))))))))))))))))))))))))))))))))))))))))))))))))))))))))))))))))))))))))))))))))))))))))))))))))
(check-sat)
